solution status: optimal solution found
objective value:                     139045.810836723
d11(0,0)                                            1 	(obj:0)
d11(1,1)                                            1 	(obj:0)
d11(1,2)                                            1 	(obj:0)
d11(1,3)                                            1 	(obj:0)
d11(2,4)                                            1 	(obj:0)
d11(2,5)                                            1 	(obj:0)
d11(2,7)                                            1 	(obj:0)
d11(2,8)                                            1 	(obj:0)
d11(2,10)                                           1 	(obj:0)
d11(2,11)                                           1 	(obj:0)
d11(3,13)                                           1 	(obj:0)
d11(3,16)                                           1 	(obj:0)
d11(3,19)                                           1 	(obj:0)
d11(3,20)                                           1 	(obj:0)
d11(3,22)                                           1 	(obj:0)
d11(3,23)                                           1 	(obj:0)
d11(3,25)                                           1 	(obj:0)
d11(3,26)                                           1 	(obj:0)
d11(3,28)                                           1 	(obj:0)
d11(3,29)                                           1 	(obj:0)
d11(3,31)                                           1 	(obj:0)
d11(3,32)                                           1 	(obj:0)
d11(3,34)                                           1 	(obj:0)
d11(3,35)                                           1 	(obj:0)
d11(3,37)                                           1 	(obj:0)
d11(3,38)                                           1 	(obj:0)
d12(2,9)                                            1 	(obj:0)
d12(2,12)                                           1 	(obj:0)
d12(3,15)                                           1 	(obj:0)
d12(3,18)                                           1 	(obj:0)
d12(3,21)                                           1 	(obj:0)
d12(3,24)                                           1 	(obj:0)
d12(3,27)                                           1 	(obj:0)
d12(3,30)                                           1 	(obj:0)
d12(3,33)                                           1 	(obj:0)
d12(3,36)                                           1 	(obj:0)
d12(3,39)                                           1 	(obj:0)
d21(2,4)                                            1 	(obj:0)
d21(3,13)                                           1 	(obj:0)
d21(3,14)                                           1 	(obj:0)
d21(3,15)                           0.999999999999997 	(obj:0)
d21(3,16)                                           1 	(obj:0)
d21(3,17)                                           1 	(obj:0)
d21(3,19)                                           1 	(obj:0)
d21(3,22)                                           1 	(obj:0)
d21(3,23)                                           1 	(obj:0)
d21(3,25)                                           1 	(obj:0)
d21(3,31)                                           1 	(obj:0)
y2(3,24)                             960.592982999986 	(obj:0)
y2(3,27)                             960.592982999986 	(obj:0)
y2(3,30)                             960.592982999986 	(obj:0)
y2(3,33)                             960.592982999986 	(obj:0)
y2(3,36)                             960.592982999986 	(obj:0)
y2(3,39)                             960.592982999986 	(obj:0)
STE(1,1)                             4616.46978326802 	(obj:0)
STE(0,0)                                         9450 	(obj:0)
STE(1,2)                             5613.23578660129 	(obj:0)
STE(1,3)                             6830.68798993467 	(obj:0)
STE(2,4)                             1838.23414666671 	(obj:0)
STE(2,5)                                   2835.00015 	(obj:0)
STE(2,6)                             3860.46978326802 	(obj:0)
STE(2,7)                             2835.00014999998 	(obj:0)
STE(2,8)                             3831.76615333327 	(obj:0)
STE(2,9)                             4857.23578660118 	(obj:0)
STE(2,10)                            4052.45235333335 	(obj:0)
STE(2,11)                            5049.21835666665 	(obj:0)
STE(2,12)                            6074.68798993467 	(obj:0)
STE(3,13)                            85.4681433333605 	(obj:0)
STE(3,14)                            1082.23414666671 	(obj:0)
STE(3,15)                             1994.7974805167 	(obj:0)
STE(3,16)                            1082.23414666665 	(obj:0)
STE(3,17)                                  2079.00015 	(obj:0)
STE(3,18)                            2991.56348384999 	(obj:0)
STE(3,19)                            2107.70377993467 	(obj:0)
STE(3,20)                            3104.46978326802 	(obj:0)
STE(3,21)                            4017.03311711801 	(obj:0)
STE(3,22)                            1082.23414666663 	(obj:0)
STE(3,23)                            2079.00014999998 	(obj:0)
STE(3,24)                            2991.56348384997 	(obj:0)
STE(3,25)                            2079.00014999992 	(obj:0)
STE(3,26)                            3075.76615333321 	(obj:0)
STE(3,27)                            3988.32948718326 	(obj:0)
STE(3,28)                            3104.46978326783 	(obj:0)
STE(3,29)                            4101.23578660118 	(obj:0)
STE(3,30)                            5013.79912045116 	(obj:0)
STE(3,31)                                  2299.68635 	(obj:0)
STE(3,32)                            3296.45235333335 	(obj:0)
STE(3,33)                            4209.01568718334 	(obj:0)
STE(3,34)                            3296.45235333339 	(obj:0)
STE(3,35)                            4293.21835666659 	(obj:0)
STE(3,36)                            5205.78169051663 	(obj:0)
STE(3,37)                            4321.92198660137 	(obj:0)
STE(3,38)                            5318.68798993461 	(obj:0)
STE(3,39)                            6231.25132378465 	(obj:0)
y1(3,25)                             897.089403000015 	(obj:0)
y1(3,28)                             897.089403000015 	(obj:0)
y1(3,31)                             897.089403000015 	(obj:0)
y1(3,34)                             897.089402999929 	(obj:0)
y1(3,37)                             897.089402999968 	(obj:0)
BG(3)                                         3377.85 	(obj:10)
AVE(1)                               3199.95851117552 	(obj:0)
AVE(2)                               3265.15049132519 	(obj:0)
WB(3)                                3291.35535332476 	(obj:0)
AVE(3)                               3291.35535332476 	(obj:0)
WG(1)                                3199.95851117552 	(obj:10)
WG(2)                                3265.15049132519 	(obj:10)
BG(1)                                3007.16474602733 	(obj:10)
BG(2)                                1054.45733514539 	(obj:10)
y1(1,1)                              3669.77719505878 	(obj:0)
y1(1,2)                              2772.68779205884 	(obj:0)
y1(1,3)                               1676.9808090588 	(obj:0)
y1(2,4)                              1820.01207294118 	(obj:0)
y1(2,5)                              922.922669941217 	(obj:0)
y1(2,7)                              1820.01207294118 	(obj:0)
y1(2,8)                              922.922669941217 	(obj:0)
y1(2,10)                             1820.01207294118 	(obj:0)
y1(2,11)                             922.922669941217 	(obj:0)
y1(3,13)                             897.089403000015 	(obj:0)
y1(3,16)                             897.089403000015 	(obj:0)
y1(3,19)                             897.089403000015 	(obj:0)
y1(3,22)                             897.089403000015 	(obj:0)
y2(3,15)                             960.592982999986 	(obj:0)
y2(3,18)                             960.592982999986 	(obj:0)
y2(3,21)                             960.592982999986 	(obj:0)
